57, 273
211, 6
352, 72
183, 88
513, 50
122, 97
468, 16
525, 56
473, 53
148, 90
172, 78
462, 35
461, 67
102, 22
76, 17
132, 68
545, 16
196, 6
277, 13
535, 91
200, 93
326, 97
148, 62
403, 34
252, 42
273, 25
496, 28
270, 1
202, 39
363, 47
193, 87
419, 92
544, 1
490, 29
173, 62
57, 16
541, 39
279, 33
94, 69
78, 14
152, 48
293, 57
454, 50
273, 72
332, 68
494, 15
64, 80
220, 65
149, 39
468, 74
126, 85
289, 22
237, 33
308, 86
112, 40
233, 48
454, 77
95, 48